s td 15 56 70
b 1 1 2 4 5 6 7 8 9 10 11 13 14 15 18 20 21 22 23 24 25 26 27 30 33 35 36 37 38 39 40 41 42 43 45 46 47 48 49 51 52 53 55 56 57 58 59 60 61 62 63 64 65 66 68 69 70
b 2 1 4 5 6 7 8 9 10 11 13 14 15 18 20 21 22 23 24 25 26 27 30 33 34 35 36 37 38 39 40 41 42 43 45 46 47 48 49 51 52 53 55 56 57 58 59 60 61 62 63 64 65 66 69 70
b 3 1 4 5 6 7 8 9 10 11 13 14 15 18 20 21 22 23 24 25 26 27 30 32 33 34 35 36 37 38 39 40 41 42 43 45 46 47 48 49 51 52 53 55 56 57 58 59 60 62 63 64 65 66 69 70
b 4 1 4 5 6 7 9 10 11 13 14 15 18 20 21 22 23 24 25 26 27 30 31 32 33 34 35 36 37 38 39 40 41 42 43 45 46 47 48 51 52 53 55 56 57 58 59 60 62 63 64 65 66 69 70
b 5 1 3 5 7 13 15 18 21 23 24 25 27 31 33 34 39 43 46 48 53 55 56 57 58 59 60 62 63 66 69
b 6 1 4 5 6 7 9 11 13 14 15 18 20 22 23 24 25 26 27 30 31 32 33 34 35 36 37 38 39 40 42 43 45 46 47 51 52 53 55 56 57 58 59 60 62 63 64 65 66 67 70
b 7 1 5 6 9 11 14 15 18 20 22 23 24 25 26 27 30 31 32 34 35 36 37 39 40 42 43 44 45 46 51 52 55 57 59 60 62 63 64 65 66 67 70
b 8 5 6 9 11 14 18 20 22 23 24 26 31 32 34 35 36 37 39 43 44 45 46 50 51 55 57 62 63 65 66 67 70
b 9 2 4 5 6 7 8 9 10 11 14 15 18 20 21 22 23 24 25 26 28 30 33 35 36 37 38 39 40 41 42 43 45 46 47 48 49 52 53 56 57 61 62 63 64 65 68 69 70
b 10 4 5 7 12 14 18 21 23 24 25 28 30 37 38 40 41 42 43 45 46 47 48 49 57 61 62 64 65 70
b 11 1 2 4 5 6 7 8 9 10 11 13 14 15 18 21 22 23 24 25 26 27 29 30 33 35 36 37 38 39 40 41 42 43 45 46 47 48 49 51 52 53 55 56 57 58 59 60 61 62 63 64 65 66 68 69 70
b 12 2 5 6 7 8 9 10 11 13 14 15 18 21 22 23 24 25 26 27 29 30 33 35 36 37 38 39 40 41 42 43 45 46 47 48 49 51 52 53 54 55 56 57 58 59 60 61 62 63 64 65 66 68 69 70
b 13 2 5 6 7 9 10 11 13 14 15 18 19 21 23 26 27 29 30 33 35 36 37 38 39 41 42 43 45 46 47 48 49 51 52 53 54 55 56 57 58 59 60 61 62 64 65 66 68 69 70
b 14 2 5 6 7 9 10 11 13 14 15 17 18 19 21 26 27 29 30 33 35 36 38 39 42 43 45 46 47 48 51 52 53 54 55 56 57 58 59 60 64 66 68 69 70
b 15 5 7 9 10 11 13 15 16 17 19 26 27 29 30 33 36 38 39 42 43 48 52 54 55 56 57 60 68 69 70
1 2
1 9
1 11
2 3
3 4
4 5
4 6
6 7
7 8
9 10
11 12
12 13
13 14
14 15
